% demand
num_movements = 39;
loading_factor = [1700, 1900, 1150, 1600, 1750, 1650, 1250, 1500, 1250, 2000, 1450, 1400, 1400, 1100, 1700, 1500, 1000, 1200, 1200, 900, 1850, 900, 1750, 1250, 850, 1200, 1250, 900, 1000, 1050, 950, 1250, 900, 1700, 1350, 950, 1700, 1400, 1950];
pickup_time = [0, 0, 0, 0, 0, 0, 0, 2, 2, 2, 2, 3, 3, 3, 3, 3, 3, 4, 4, 4, 4, 4, 5, 9, 9, 9, 9, 10, 11, 11, 11, 11, 11, 11, 12, 12, 12, 13, 13];
delivery_time = [1, 2, 8, 1, 4, 2, 3, 3, 3, 3, 3, 4, 9, 4, 4, 4, 4, 9, 11, 11, 11, 11, 9, 11, 11, 10, 11, 11, 12, 12, 12, 12, 12, 12, 13, 13, 13, 14, 14];

% transporter definition
total_capacity = 11000;
num_decks = 4;
capacity = [3000, 3000, 1000, 4000];

% ways out of decks
num_ways_out = 2;
paths_out = array3d(decks, ways_out, decks, [
% ways out of deck d1
2, 4, 0, 0, 3, 4, 0, 0, 

% ways out of deck d2
4, 0, 0, 0, 0, 0, 0, 0,	

% ways out of deck d3
4, 0, 0, 0, 0, 0, 0, 0,	

% ways out of deck d4
0, 0, 0, 0,	0, 0, 0, 0,	

]);

